p cnf 14 30
-1 0 

-3 0 

-1 -3 5 0 

1 -5 0 

3 -5 0 

-2 -4 6 0 

2 -6 0 

4 -6 0 

-9 -5 7 0 

9 -7 0 

5 -7 0 

-10 -6 8 0 

10 -8 0 

6 -8 0 

-5 -11 0 

5 11 0 

-6 -12 0 

6 12 0 

-9 -5 13 0 

9 -13 0 

5 -13 0 

-10 -6 14 0 

10 -14 0 

6 -14 0 

8 0 

12 0 

-11 2 0 

11 -2 0 

-7 4 0 

7 -4 0 
